1602767
42, 12, 32, 56, 40, 5, 19, 49, 23, 60, 29, 25, 30, 41, 6, 64, 11, 66, 26, 55, 34, 46, 43, 7, 67, 38, 21, 3, 59, 8, 35, 51, 44, 18, 57, 33, 52, 22, 28, 50, 58, 2, 16, 63, 61, 15, 48, 24, 9, 36, 31, 1, 54, 13, 47, 4, 20, 65, 45, 27, 17, 68, 39, 62, 37, 53, 14, 10
